maximize
obj: 
subject to
c1_2: 1 x_1_ <= 0.501
c2_2: 1 x_2_ <= 0.501
c3_2: 1 x_3_ <= 0.501
c4_2: 1 x_4_ <= 0.001
c5_2: 1 X_1,1_ <= 0.501
c6_2: 1 X_1,2_ <= 0.001
c7_2: 1 X_1,3_ <= 0.251
c8_2: 1 X_1,4_ <= -0.499
c9_2: 1 X_1,2_ <= 0.001
c10_2: 1 X_2,2_ <= 0.501
c11_2: 1 X_2,3_ <= 0.001
c12_2: 1 X_2,4_ <= -0.499
c13_2: 1 X_1,3_ <= 0.251
c14_1: 1 X_2,3_ <= 0.001
c15_1: 1 X_3,3_ <= 0.501
c16_1: 1 X_3,4_ <= 0.501
c17_1: 1 X_1,4_ <= -0.499
c18_1: 1 X_2,4_ <= -0.499
c19_1: 1 X_3,4_ <= 0.501
c20_1: 1 X_4,4_ <= 1.001
c21_1: -1 x_1_ - 1 u_1_ <= 0
c22_1: -1 x_2_ - 1 u_2_ <= 0
c23_1: -1 x_3_ - 1 u_3_ <= 0
c24_1: -1 x_4_ - 1 u_4_ <= 0
c25_1: 1 x_1_ - 1 u_1_ <= 0
c26_1: 1 x_2_ - 1 u_2_ <= 0
c27_1: 1 x_3_ - 1 u_3_ <= 0
c28_1: 1 x_4_ - 1 u_4_ <= 0
c29_1: 1 u_1_ <= 1
c30_1: 1 u_2_ <= 1
c31_1: 1 u_3_ <= 1
c32_1: 1 u_4_ <= 1
c1_1: 1 x_1_ >= 0.499
c2_1: 1 x_2_ >= 0.499
c3_1: 1 x_3_ >= 0.499
c4_1: 1 x_4_ >= -0.001
c5_1: 1 X_1,1_ >= 0.499
c6_1: 1 X_1,2_ >= -0.001
c7_1: 1 X_1,3_ >= 0.249
c8_1: 1 X_1,4_ >= -0.501
c9_1: 1 X_1,2_ >= -0.001
c10_1: 1 X_2,2_ >= 0.499
c11_1: 1 X_2,3_ >= -0.001
c12_1: 1 X_2,4_ >= -0.501
c13_1: 1 X_1,3_ >= 0.249
c14: 1 X_2,3_ >= -0.001
c15: 1 X_3,3_ >= 0.499
c16: 1 X_3,4_ >= 0.499
c17: 1 X_1,4_ >= -0.501
c18: 1 X_2,4_ >= -0.501
c19: 1 X_3,4_ >= 0.499
c20: 1 X_4,4_ >= 0.999
c21: 1 X_1,1_ - 2 R_1,1_ + 1 U_1,1_ >= 0
c22: 1 X_1,2_ - 1 R_2,1_ - 1 R_1,2_ + 1 U_1,2_ >= 0
c23: 1 X_1,3_ - 1 R_3,1_ - 1 R_1,3_ + 1 U_1,3_ >= 0
c24: 1 X_1,4_ - 1 R_4,1_ - 1 R_1,4_ + 1 U_1,4_ >= 0
c25: 1 X_1,2_ - 1 R_2,1_ - 1 R_1,2_ + 1 U_1,2_ >= 0
c26: 1 X_2,2_ - 2 R_2,2_ + 1 U_2,2_ >= 0
c27: 1 X_2,3_ - 1 R_3,2_ - 1 R_2,3_ + 1 U_2,3_ >= 0
c28: 1 X_2,4_ - 1 R_4,2_ - 1 R_2,4_ + 1 U_2,4_ >= 0
c29: 1 X_1,3_ - 1 R_3,1_ - 1 R_1,3_ + 1 U_1,3_ >= 0
c30: 1 X_2,3_ - 1 R_3,2_ - 1 R_2,3_ + 1 U_2,3_ >= 0
c31: 1 X_3,3_ - 2 R_3,3_ + 1 U_3,3_ >= 0
c32: 1 X_3,4_ - 1 R_4,3_ - 1 R_3,4_ + 1 U_3,4_ >= 0
c33: 1 X_1,4_ - 1 R_4,1_ - 1 R_1,4_ + 1 U_1,4_ >= 0
c34: 1 X_2,4_ - 1 R_4,2_ - 1 R_2,4_ + 1 U_2,4_ >= 0
c35: 1 X_3,4_ - 1 R_4,3_ - 1 R_3,4_ + 1 U_3,4_ >= 0
c36: 1 X_4,4_ - 2 R_4,4_ + 1 U_4,4_ >= 0
c37: 1 X_1,1_ + 2 R_1,1_ + 1 U_1,1_ >= 0
c38: 1 X_1,2_ + 1 R_2,1_ + 1 R_1,2_ + 1 U_1,2_ >= 0
c39: 1 X_1,3_ + 1 R_3,1_ + 1 R_1,3_ + 1 U_1,3_ >= 0
c40: 1 X_1,4_ + 1 R_4,1_ + 1 R_1,4_ + 1 U_1,4_ >= 0
c41: 1 X_1,2_ + 1 R_2,1_ + 1 R_1,2_ + 1 U_1,2_ >= 0
c42: 1 X_2,2_ + 2 R_2,2_ + 1 U_2,2_ >= 0
c43: 1 X_2,3_ + 1 R_3,2_ + 1 R_2,3_ + 1 U_2,3_ >= 0
c44: 1 X_2,4_ + 1 R_4,2_ + 1 R_2,4_ + 1 U_2,4_ >= 0
c45: 1 X_1,3_ + 1 R_3,1_ + 1 R_1,3_ + 1 U_1,3_ >= 0
c46: 1 X_2,3_ + 1 R_3,2_ + 1 R_2,3_ + 1 U_2,3_ >= 0
c47: 1 X_3,3_ + 2 R_3,3_ + 1 U_3,3_ >= 0
c48: 1 X_3,4_ + 1 R_4,3_ + 1 R_3,4_ + 1 U_3,4_ >= 0
c49: 1 X_1,4_ + 1 R_4,1_ + 1 R_1,4_ + 1 U_1,4_ >= 0
c50: 1 X_2,4_ + 1 R_4,2_ + 1 R_2,4_ + 1 U_2,4_ >= 0
c51: 1 X_3,4_ + 1 R_4,3_ + 1 R_3,4_ + 1 U_3,4_ >= 0
c52: 1 X_4,4_ + 2 R_4,4_ + 1 U_4,4_ >= 0
c53: -1 X_1,1_ + 1 U_1,1_ >= 0
c54: -1 X_1,2_ - 1 R_2,1_ + 1 R_1,2_ + 1 U_1,2_ >= 0
c55: -1 X_1,3_ - 1 R_3,1_ + 1 R_1,3_ + 1 U_1,3_ >= 0
c56: -1 X_1,4_ - 1 R_4,1_ + 1 R_1,4_ + 1 U_1,4_ >= 0
c57: -1 X_1,2_ + 1 R_2,1_ - 1 R_1,2_ + 1 U_1,2_ >= 0
c58: -1 X_2,2_ + 1 U_2,2_ >= 0
c59: -1 X_2,3_ - 1 R_3,2_ + 1 R_2,3_ + 1 U_2,3_ >= 0
c60: -1 X_2,4_ - 1 R_4,2_ + 1 R_2,4_ + 1 U_2,4_ >= 0
c61: -1 X_1,3_ + 1 R_3,1_ - 1 R_1,3_ + 1 U_1,3_ >= 0
c62: -1 X_2,3_ + 1 R_3,2_ - 1 R_2,3_ + 1 U_2,3_ >= 0
c63: -1 X_3,3_ + 1 U_3,3_ >= 0
c64: -1 X_3,4_ - 1 R_4,3_ + 1 R_3,4_ + 1 U_3,4_ >= 0
c65: -1 X_1,4_ + 1 R_4,1_ - 1 R_1,4_ + 1 U_1,4_ >= 0
c66: -1 X_2,4_ + 1 R_4,2_ - 1 R_2,4_ + 1 U_2,4_ >= 0
c67: -1 X_3,4_ + 1 R_4,3_ - 1 R_3,4_ + 1 U_3,4_ >= 0
c68: -1 X_4,4_ + 1 U_4,4_ >= 0
c69: -2 u_1_ + 1 U_1,1_ >= -1
c70: -1 u_1_ - 1 u_2_ + 1 U_1,2_ >= -1
c71: -1 u_1_ - 1 u_3_ + 1 U_1,3_ >= -1
c72: -1 u_1_ - 1 u_4_ + 1 U_1,4_ >= -1
c73: -1 u_1_ - 1 u_2_ + 1 U_1,2_ >= -1
c74: -2 u_2_ + 1 U_2,2_ >= -1
c75: -1 u_2_ - 1 u_3_ + 1 U_2,3_ >= -1
c76: -1 u_2_ - 1 u_4_ + 1 U_2,4_ >= -1
c77: -1 u_1_ - 1 u_3_ + 1 U_1,3_ >= -1
c78: -1 u_2_ - 1 u_3_ + 1 U_2,3_ >= -1
c79: -2 u_3_ + 1 U_3,3_ >= -1
c80: -1 u_3_ - 1 u_4_ + 1 U_3,4_ >= -1
c81: -1 u_1_ - 1 u_4_ + 1 U_1,4_ >= -1
c82: -1 u_2_ - 1 u_4_ + 1 U_2,4_ >= -1
c83: -1 u_3_ - 1 u_4_ + 1 U_3,4_ >= -1
c84: -2 u_4_ + 1 U_4,4_ >= -1
c85: -1 x_1_ + 1 u_1_ + 1 R_1,1_ - 1 U_1,1_ >= 0
c86: -1 x_2_ + 1 u_2_ + 1 R_2,1_ - 1 U_1,2_ >= 0
c87: -1 x_3_ + 1 u_3_ + 1 R_3,1_ - 1 U_1,3_ >= 0
c88: -1 x_4_ + 1 u_4_ + 1 R_4,1_ - 1 U_1,4_ >= 0
c89: -1 x_1_ + 1 u_1_ + 1 R_1,2_ - 1 U_1,2_ >= 0
c90: -1 x_2_ + 1 u_2_ + 1 R_2,2_ - 1 U_2,2_ >= 0
c91: -1 x_3_ + 1 u_3_ + 1 R_3,2_ - 1 U_2,3_ >= 0
c92: -1 x_4_ + 1 u_4_ + 1 R_4,2_ - 1 U_2,4_ >= 0
c93: -1 x_1_ + 1 u_1_ + 1 R_1,3_ - 1 U_1,3_ >= 0
c94: -1 x_2_ + 1 u_2_ + 1 R_2,3_ - 1 U_2,3_ >= 0
c95: -1 x_3_ + 1 u_3_ + 1 R_3,3_ - 1 U_3,3_ >= 0
c96: -1 x_4_ + 1 u_4_ + 1 R_4,3_ - 1 U_3,4_ >= 0
c97: -1 x_1_ + 1 u_1_ + 1 R_1,4_ - 1 U_1,4_ >= 0
c98: -1 x_2_ + 1 u_2_ + 1 R_2,4_ - 1 U_2,4_ >= 0
c99: -1 x_3_ + 1 u_3_ + 1 R_3,4_ - 1 U_3,4_ >= 0
c100: -1 x_4_ + 1 u_4_ + 1 R_4,4_ - 1 U_4,4_ >= 0
c101: 1 x_1_ + 1 u_1_ - 1 R_1,1_ - 1 U_1,1_ >= 0
c102: 1 x_2_ + 1 u_2_ - 1 R_2,1_ - 1 U_1,2_ >= 0
c103: 1 x_3_ + 1 u_3_ - 1 R_3,1_ - 1 U_1,3_ >= 0
c104: 1 x_4_ + 1 u_4_ - 1 R_4,1_ - 1 U_1,4_ >= 0
c105: 1 x_1_ + 1 u_1_ - 1 R_1,2_ - 1 U_1,2_ >= 0
c106: 1 x_2_ + 1 u_2_ - 1 R_2,2_ - 1 U_2,2_ >= 0
c107: 1 x_3_ + 1 u_3_ - 1 R_3,2_ - 1 U_2,3_ >= 0
c108: 1 x_4_ + 1 u_4_ - 1 R_4,2_ - 1 U_2,4_ >= 0
c109: 1 x_1_ + 1 u_1_ - 1 R_1,3_ - 1 U_1,3_ >= 0
c110: 1 x_2_ + 1 u_2_ - 1 R_2,3_ - 1 U_2,3_ >= 0
c111: 1 x_3_ + 1 u_3_ - 1 R_3,3_ - 1 U_3,3_ >= 0
c112: 1 x_4_ + 1 u_4_ - 1 R_4,3_ - 1 U_3,4_ >= 0
c113: 1 x_1_ + 1 u_1_ - 1 R_1,4_ - 1 U_1,4_ >= 0
c114: 1 x_2_ + 1 u_2_ - 1 R_2,4_ - 1 U_2,4_ >= 0
c115: 1 x_3_ + 1 u_3_ - 1 R_3,4_ - 1 U_3,4_ >= 0
c116: 1 x_4_ + 1 u_4_ - 1 R_4,4_ - 1 U_4,4_ >= 0
c1: -1 u_1_ + 1 U_1,1_ = 0
c2: -1 u_2_ + 1 U_2,2_ = 0
c3: -1 u_3_ + 1 U_3,3_ = 0
c4: -1 u_4_ + 1 U_4,4_ = 0
c5: 1 u_1_ + 1 u_2_ + 1 u_3_ + 1 u_4_ = 3
c6: -3 x_1_ + 1 R_1,1_ + 1 R_1,2_ + 1 R_1,3_ + 1 R_1,4_ = 0
c7: -3 x_2_ + 1 R_2,1_ + 1 R_2,2_ + 1 R_2,3_ + 1 R_2,4_ = 0
c8: -3 x_3_ + 1 R_3,1_ + 1 R_3,2_ + 1 R_3,3_ + 1 R_3,4_ = 0
c9: -3 x_4_ + 1 R_4,1_ + 1 R_4,2_ + 1 R_4,3_ + 1 R_4,4_ = 0
c10: -3 u_1_ + 1 U_1,1_ + 1 U_1,2_ + 1 U_1,3_ + 1 U_1,4_ = 0
c11: -3 u_2_ + 1 U_1,2_ + 1 U_2,2_ + 1 U_2,3_ + 1 U_2,4_ = 0
c12: -3 u_3_ + 1 U_1,3_ + 1 U_2,3_ + 1 U_3,3_ + 1 U_3,4_ = 0
c13: -3 u_4_ + 1 U_1,4_ + 1 U_2,4_ + 1 U_3,4_ + 1 U_4,4_ = 0
Bounds
x_1_ free
x_2_ free
x_3_ free
x_4_ free
u_1_ free
u_2_ free
u_3_ free
u_4_ free
X_1,1_ free
X_1,2_ free
X_2,2_ free
X_1,3_ free
X_2,3_ free
X_3,3_ free
X_1,4_ free
X_2,4_ free
X_3,4_ free
X_4,4_ free
R_1,1_ free
R_2,1_ free
R_3,1_ free
R_4,1_ free
R_1,2_ free
R_2,2_ free
R_3,2_ free
R_4,2_ free
R_1,3_ free
R_2,3_ free
R_3,3_ free
R_4,3_ free
R_1,4_ free
R_2,4_ free
R_3,4_ free
R_4,4_ free
U_1,1_ free
U_1,2_ free
U_2,2_ free
U_1,3_ free
U_2,3_ free
U_3,3_ free
U_1,4_ free
U_2,4_ free
U_3,4_ free
U_4,4_ free
End
